unsat
(:added-eqs                       31615
 :arith-eq-adapter                296
 :arith-bound-propagations-lp     217
 :arith-branch                    2
 :arith-conflicts                 1445
 :arith-diseq                     3378
 :arith-fixed-eqs                 1420
 :arith-gcd-calls                 162
 :arith-grobner-calls             191
 :arith-grobner-conflicts         24
 :arith-horner-calls              59
 :arith-horner-cross-nested-forms 3963
 :arith-lower                     11850
 :arith-make-feasible             7553
 :arith-max-columns               814
 :arith-max-rows                  245
 :arith-nla-add-bounds            48
 :arith-nla-lemmas                895
 :arith-nla-propagate-bounds      391
 :arith-nla-propagate-eq          5404
 :arith-nra-calls                 93
 :arith-offset-eqs                21
 :arith-patches                   162
 :arith-patches-success           159
 :arith-upper                     35511
 :binary-propagations             88176
 :card2bv-rewrites                2
 :cnf-encoding-aux-vars           50
 :conflicts                       688
 :decisions                       75780
 :del-clause                      640
 :elim-unconstrained              41
 :final-checks                    505
 :max-memory                      134.59
 :memory                          52.44
 :minimized-lits                  876
 :mk-bool-var                     3020
 :mk-clause                       1519
 :mk-clause-binary                18530
 :nlsat-conflicts                 13416
 :nlsat-decisions                 6063
 :nlsat-propagations              482531
 :nlsat-restarts                  2
 :nlsat-stages                    262359
 :num-allocs                      3966361633
 :num-checks                      1
 :propagations                    104992
 :restarts                        6
 :rlimit-count                    8718192
 :sat-backjumps                   245
 :sat-conflicts                   245
 :sat-decisions                   4687
 :sat-del-clause                  502
 :sat-elim-clauses                209
 :sat-elim-literals               215
 :sat-minimized-lits              95
 :sat-mk-clause-2ary              105867
 :sat-mk-clause-nary              169814
 :sat-mk-var                      77856
 :sat-propagations-2ary           228640
 :sat-propagations-nary           159839
 :sat-scc-elim-binary             986
 :sat-scc-elim-vars               477
 :sat-subs-resolution-dyn         7
 :sat-units                       93
 :solve-eqs-elim-vars             142
 :solve-eqs-steps                 2115
 :time                            3.06
 :total-time                      3.07)
